20 43
1 2 5
1 3 5
1 4 4
1 5 4
2 3 3
2 4 3
2 5 1
3 4 5
3 5 3
4 5 3
5 6 4
6 7 3
6 8 4
6 9 2
6 10 2
7 8 1
7 9 4
7 10 3
8 9 2
8 10 2
9 10 3
10 11 3
11 12 1
11 13 4
11 14 5
11 15 1
12 13 2
12 14 1
12 15 5
13 14 1
13 15 1
14 15 5
15 16 5
16 17 2
16 18 3
16 19 2
16 20 1
17 18 1
17 19 5
17 20 5
18 19 5
18 20 3
19 20 2
